workflow.ATEM/temp/97c4612718cf492c89ca1a4d094b6f5b-pulp.mps
*SENSE:Maximize
NAME          MODEL
ROWS
 N  OBJ
 L  C0000000
 L  C0000001
COLUMNS
    MARK      'MARKER'                 'INTORG'
    X0000000  C0000000   1.000000000000e+00
    X0000000  C0000001   1.000000000000e+00
    X0000000  OBJ        2.000000000000e+00
    MARK      'MARKER'                 'INTEND'
    MARK      'MARKER'                 'INTORG'
    X0000001  C0000000   1.000000000000e+00
    X0000001  C0000001   1.000000000000e+00
    X0000001  OBJ        2.000000000000e+00
    MARK      'MARKER'                 'INTEND'
    MARK      'MARKER'                 'INTORG'
    X0000002  C0000000   1.000000000000e+00
    X0000002  C0000001   1.000000000000e+00
    X0000002  OBJ        2.000000000000e+00
    MARK      'MARKER'                 'INTEND'
    MARK      'MARKER'                 'INTORG'
    X0000003  C0000000   1.000000000000e+00
    X0000003  C0000001   1.000000000000e+00
    X0000003  OBJ        2.000000000000e+00
    MARK      'MARKER'                 'INTEND'
    MARK      'MARKER'                 'INTORG'
    X0000004  C0000000   1.000000000000e+00
    X0000004  C0000001   1.000000000000e+00
    X0000004  OBJ        2.000000000000e+00
    MARK      'MARKER'                 'INTEND'
    MARK      'MARKER'                 'INTORG'
    X0000005  C0000000   1.000000000000e+00
    X0000005  C0000001   1.000000000000e+00
    X0000005  OBJ        2.000000000000e+00
    MARK      'MARKER'                 'INTEND'
    MARK      'MARKER'                 'INTORG'
    X0000006  C0000000   1.000000000000e+00
    X0000006  C0000001   1.000000000000e+00
    X0000006  OBJ        2.000000000000e+00
    MARK      'MARKER'                 'INTEND'
    MARK      'MARKER'                 'INTORG'
    X0000007  C0000000   1.000000000000e+00
    X0000007  C0000001   1.000000000000e+00
    X0000007  OBJ        2.000000000000e+00
    MARK      'MARKER'                 'INTEND'
    MARK      'MARKER'                 'INTORG'
    X0000008  C0000000   1.000000000000e+00
    X0000008  C0000001   1.000000000000e+00
    X0000008  OBJ        2.000000000000e+00
    MARK      'MARKER'                 'INTEND'
    MARK      'MARKER'                 'INTORG'
    X0000009  C0000000   1.000000000000e+00
    X0000009  C0000001   1.000000000000e+00
    X0000009  OBJ        2.000000000000e+00
    MARK      'MARKER'                 'INTEND'
    MARK      'MARKER'                 'INTORG'
    X0000010  C0000000   1.000000000000e+00
    X0000010  C0000001   1.000000000000e+00
    X0000010  OBJ        2.000000000000e+00
    MARK      'MARKER'                 'INTEND'
    MARK      'MARKER'                 'INTORG'
    X0000011  C0000000   1.000000000000e+00
    X0000011  C0000001   1.000000000000e+00
    X0000011  OBJ        2.000000000000e+00
    MARK      'MARKER'                 'INTEND'
    MARK      'MARKER'                 'INTORG'
    X0000012  C0000000   1.000000000000e+00
    X0000012  C0000001   1.000000000000e+00
    X0000012  OBJ        2.000000000000e+00
    MARK      'MARKER'                 'INTEND'
    MARK      'MARKER'                 'INTORG'
    X0000013  C0000000   1.000000000000e+00
    X0000013  C0000001   1.000000000000e+00
    X0000013  OBJ        2.000000000000e+00
    MARK      'MARKER'                 'INTEND'
    MARK      'MARKER'                 'INTORG'
    X0000014  C0000000   1.000000000000e+00
    X0000014  C0000001   1.000000000000e+00
    X0000014  OBJ        2.000000000000e+00
    MARK      'MARKER'                 'INTEND'
    MARK      'MARKER'                 'INTORG'
    X0000015  C0000000   1.000000000000e+00
    X0000015  C0000001   1.000000000000e+00
    X0000015  OBJ        2.000000000000e+00
    MARK      'MARKER'                 'INTEND'
    MARK      'MARKER'                 'INTORG'
    X0000016  C0000000   1.000000000000e+00
    X0000016  C0000001   1.000000000000e+00
    X0000016  OBJ        2.000000000000e+00
    MARK      'MARKER'                 'INTEND'
    MARK      'MARKER'                 'INTORG'
    X0000017  C0000000   1.000000000000e+00
    X0000017  C0000001   1.000000000000e+00
    X0000017  OBJ        2.000000000000e+00
    MARK      'MARKER'                 'INTEND'
    MARK      'MARKER'                 'INTORG'
    X0000018  C0000000   1.000000000000e+00
    X0000018  C0000001   1.000000000000e+00
    X0000018  OBJ        2.000000000000e+00
    MARK      'MARKER'                 'INTEND'
    MARK      'MARKER'                 'INTORG'
    X0000019  C0000000   1.000000000000e+00
    X0000019  C0000001   1.000000000000e+00
    X0000019  OBJ        2.000000000000e+00
    MARK      'MARKER'                 'INTEND'
    MARK      'MARKER'                 'INTORG'
    X0000020  C0000000   1.000000000000e+00
    X0000020  C0000001   1.000000000000e+00
    X0000020  OBJ        2.000000000000e+00
    MARK      'MARKER'                 'INTEND'
    MARK      'MARKER'                 'INTORG'
    X0000021  C0000000   1.000000000000e+00
    X0000021  C0000001   1.000000000000e+00
    X0000021  OBJ        2.000000000000e+00
    MARK      'MARKER'                 'INTEND'
    MARK      'MARKER'                 'INTORG'
    X0000022  C0000000   1.000000000000e+00
    X0000022  C0000001   1.000000000000e+00
    X0000022  OBJ        2.000000000000e+00
    MARK      'MARKER'                 'INTEND'
    MARK      'MARKER'                 'INTORG'
    X0000023  C0000000   1.000000000000e+00
    X0000023  C0000001   1.000000000000e+00
    X0000023  OBJ        2.000000000000e+00
    MARK      'MARKER'                 'INTEND'
    MARK      'MARKER'                 'INTORG'
    X0000024  C0000000   1.000000000000e+00
    X0000024  C0000001   1.000000000000e+00
    X0000024  OBJ        2.000000000000e+00
    MARK      'MARKER'                 'INTEND'
    MARK      'MARKER'                 'INTORG'
    X0000025  C0000000   1.000000000000e+00
    X0000025  C0000001   1.000000000000e+00
    X0000025  OBJ        2.000000000000e+00
    MARK      'MARKER'                 'INTEND'
    MARK      'MARKER'                 'INTORG'
    X0000026  C0000000   1.000000000000e+00
    X0000026  C0000001   1.000000000000e+00
    X0000026  OBJ        2.000000000000e+00
    MARK      'MARKER'                 'INTEND'
    MARK      'MARKER'                 'INTORG'
    X0000027  C0000000   1.000000000000e+00
    X0000027  C0000001   1.000000000000e+00
    X0000027  OBJ        2.000000000000e+00
    MARK      'MARKER'                 'INTEND'
    MARK      'MARKER'                 'INTORG'
    X0000028  C0000000   1.000000000000e+00
    X0000028  C0000001   1.000000000000e+00
    X0000028  OBJ        2.000000000000e+00
    MARK      'MARKER'                 'INTEND'
    MARK      'MARKER'                 'INTORG'
    X0000029  C0000000   1.000000000000e+00
    X0000029  C0000001   1.000000000000e+00
    X0000029  OBJ        2.000000000000e+00
    MARK      'MARKER'                 'INTEND'
    MARK      'MARKER'                 'INTORG'
    X0000030  C0000000   1.000000000000e+00
    X0000030  C0000001   1.000000000000e+00
    X0000030  OBJ        2.000000000000e+00
    MARK      'MARKER'                 'INTEND'
    MARK      'MARKER'                 'INTORG'
    X0000031  C0000000   1.000000000000e+00
    X0000031  C0000001   1.000000000000e+00
    X0000031  OBJ        2.000000000000e+00
    MARK      'MARKER'                 'INTEND'
    MARK      'MARKER'                 'INTORG'
    X0000032  C0000000   1.000000000000e+00
    X0000032  C0000001   1.000000000000e+00
    X0000032  OBJ        2.000000000000e+00
    MARK      'MARKER'                 'INTEND'
    MARK      'MARKER'                 'INTORG'
    X0000033  C0000000   1.000000000000e+00
    X0000033  C0000001   1.000000000000e+00
    X0000033  OBJ        2.000000000000e+00
    MARK      'MARKER'                 'INTEND'
    MARK      'MARKER'                 'INTORG'
    X0000034  C0000000   1.000000000000e+00
    X0000034  C0000001   1.000000000000e+00
    X0000034  OBJ        2.000000000000e+00
    MARK      'MARKER'                 'INTEND'
    MARK      'MARKER'                 'INTORG'
    X0000035  C0000000   1.000000000000e+00
    X0000035  C0000001   1.000000000000e+00
    X0000035  OBJ        2.000000000000e+00
    MARK      'MARKER'                 'INTEND'
    MARK      'MARKER'                 'INTORG'
    X0000036  C0000000   1.000000000000e+00
    X0000036  C0000001   1.000000000000e+00
    X0000036  OBJ        2.000000000000e+00
    MARK      'MARKER'                 'INTEND'
    MARK      'MARKER'                 'INTORG'
    X0000037  C0000000   1.000000000000e+00
    X0000037  C0000001   1.000000000000e+00
    X0000037  OBJ        2.000000000000e+00
    MARK      'MARKER'                 'INTEND'
    MARK      'MARKER'                 'INTORG'
    X0000038  C0000000   1.000000000000e+00
    X0000038  C0000001   1.000000000000e+00
    X0000038  OBJ        2.000000000000e+00
    MARK      'MARKER'                 'INTEND'
    MARK      'MARKER'                 'INTORG'
    X0000039  C0000000   1.000000000000e+00
    X0000039  C0000001   1.000000000000e+00
    X0000039  OBJ        2.000000000000e+00
    MARK      'MARKER'                 'INTEND'
    MARK      'MARKER'                 'INTORG'
    X0000040  C0000000   1.000000000000e+00
    X0000040  C0000001   1.000000000000e+00
    X0000040  OBJ        2.000000000000e+00
    MARK      'MARKER'                 'INTEND'
    MARK      'MARKER'                 'INTORG'
    X0000041  C0000000   1.000000000000e+00
    X0000041  C0000001   1.000000000000e+00
    X0000041  OBJ        2.000000000000e+00
    MARK      'MARKER'                 'INTEND'
    MARK      'MARKER'                 'INTORG'
    X0000042  C0000000   1.000000000000e+00
    X0000042  C0000001   1.000000000000e+00
    X0000042  OBJ        2.000000000000e+00
    MARK      'MARKER'                 'INTEND'
    MARK      'MARKER'                 'INTORG'
    X0000043  C0000000   1.000000000000e+00
    X0000043  C0000001   1.000000000000e+00
    X0000043  OBJ        2.000000000000e+00
    MARK      'MARKER'                 'INTEND'
    MARK      'MARKER'                 'INTORG'
    X0000044  C0000000   1.000000000000e+00
    X0000044  C0000001   1.000000000000e+00
    X0000044  OBJ        2.000000000000e+00
    MARK      'MARKER'                 'INTEND'
    MARK      'MARKER'                 'INTORG'
    X0000045  C0000000   1.000000000000e+00
    X0000045  C0000001   1.000000000000e+00
    X0000045  OBJ        2.000000000000e+00
    MARK      'MARKER'                 'INTEND'
    MARK      'MARKER'                 'INTORG'
    X0000046  C0000000   1.000000000000e+00
    X0000046  C0000001   1.000000000000e+00
    X0000046  OBJ        2.000000000000e+00
    MARK      'MARKER'                 'INTEND'
    MARK      'MARKER'                 'INTORG'
    X0000047  C0000000   1.000000000000e+00
    X0000047  C0000001   1.000000000000e+00
    X0000047  OBJ        2.000000000000e+00
    MARK      'MARKER'                 'INTEND'
    MARK      'MARKER'                 'INTORG'
    X0000048  C0000000   1.000000000000e+00
    X0000048  C0000001   1.000000000000e+00
    X0000048  OBJ        2.000000000000e+00
    MARK      'MARKER'                 'INTEND'
    MARK      'MARKER'                 'INTORG'
    X0000049  C0000000   1.000000000000e+00
    X0000049  C0000001   1.000000000000e+00
    X0000049  OBJ        2.000000000000e+00
    MARK      'MARKER'                 'INTEND'
    MARK      'MARKER'                 'INTORG'
    X0000050  C0000000   1.000000000000e+00
    X0000050  C0000001   1.000000000000e+00
    X0000050  OBJ        2.000000000000e+00
    MARK      'MARKER'                 'INTEND'
    MARK      'MARKER'                 'INTORG'
    X0000051  C0000000   1.000000000000e+00
    X0000051  C0000001   1.000000000000e+00
    X0000051  OBJ        2.000000000000e+00
    MARK      'MARKER'                 'INTEND'
    MARK      'MARKER'                 'INTORG'
    X0000052  C0000000   1.000000000000e+00
    X0000052  C0000001   1.000000000000e+00
    X0000052  OBJ        2.000000000000e+00
    MARK      'MARKER'                 'INTEND'
    MARK      'MARKER'                 'INTORG'
    X0000053  C0000000   1.000000000000e+00
    X0000053  C0000001   1.000000000000e+00
    X0000053  OBJ        2.000000000000e+00
    MARK      'MARKER'                 'INTEND'
    MARK      'MARKER'                 'INTORG'
    X0000054  C0000000   1.000000000000e+00
    X0000054  C0000001   1.000000000000e+00
    X0000054  OBJ        2.000000000000e+00
    MARK      'MARKER'                 'INTEND'
    MARK      'MARKER'                 'INTORG'
    X0000055  C0000000   1.000000000000e+00
    X0000055  C0000001   1.000000000000e+00
    X0000055  OBJ        2.000000000000e+00
    MARK      'MARKER'                 'INTEND'
    MARK      'MARKER'                 'INTORG'
    X0000056  C0000000   1.000000000000e+00
    X0000056  C0000001   1.000000000000e+00
    X0000056  OBJ        2.000000000000e+00
    MARK      'MARKER'                 'INTEND'
    MARK      'MARKER'                 'INTORG'
    X0000057  C0000000   1.000000000000e+00
    X0000057  C0000001   1.000000000000e+00
    X0000057  OBJ        2.000000000000e+00
    MARK      'MARKER'                 'INTEND'
    MARK      'MARKER'                 'INTORG'
    X0000058  C0000000   1.000000000000e+00
    X0000058  C0000001   1.000000000000e+00
    X0000058  OBJ        2.000000000000e+00
    MARK      'MARKER'                 'INTEND'
    MARK      'MARKER'                 'INTORG'
    X0000059  C0000000   1.000000000000e+00
    X0000059  C0000001   1.000000000000e+00
    X0000059  OBJ        2.000000000000e+00
    MARK      'MARKER'                 'INTEND'
    MARK      'MARKER'                 'INTORG'
    X0000060  C0000000   1.000000000000e+00
    X0000060  C0000001   1.000000000000e+00
    X0000060  OBJ        2.000000000000e+00
    MARK      'MARKER'                 'INTEND'
    MARK      'MARKER'                 'INTORG'
    X0000061  C0000000   1.000000000000e+00
    X0000061  C0000001   1.000000000000e+00
    X0000061  OBJ        2.000000000000e+00
    MARK      'MARKER'                 'INTEND'
    MARK      'MARKER'                 'INTORG'
    X0000062  C0000000   1.000000000000e+00
    X0000062  C0000001   1.000000000000e+00
    X0000062  OBJ        2.000000000000e+00
    MARK      'MARKER'                 'INTEND'
    MARK      'MARKER'                 'INTORG'
    X0000063  C0000000   1.000000000000e+00
    X0000063  C0000001   1.000000000000e+00
    X0000063  OBJ        2.000000000000e+00
    MARK      'MARKER'                 'INTEND'
    MARK      'MARKER'                 'INTORG'
    X0000064  C0000000   1.000000000000e+00
    X0000064  C0000001   1.000000000000e+00
    X0000064  OBJ        2.000000000000e+00
    MARK      'MARKER'                 'INTEND'
    MARK      'MARKER'                 'INTORG'
    X0000065  C0000000   1.000000000000e+00
    X0000065  C0000001   1.000000000000e+00
    X0000065  OBJ        2.000000000000e+00
    MARK      'MARKER'                 'INTEND'
    MARK      'MARKER'                 'INTORG'
    X0000066  C0000000   1.000000000000e+00
    X0000066  C0000001   1.000000000000e+00
    X0000066  OBJ        2.000000000000e+00
    MARK      'MARKER'                 'INTEND'
    MARK      'MARKER'                 'INTORG'
    X0000067  C0000000   1.000000000000e+00
    X0000067  C0000001   1.000000000000e+00
    X0000067  OBJ        2.000000000000e+00
    MARK      'MARKER'                 'INTEND'
    MARK      'MARKER'                 'INTORG'
    X0000068  C0000000   1.000000000000e+00
    X0000068  C0000001   1.000000000000e+00
    X0000068  OBJ        2.000000000000e+00
    MARK      'MARKER'                 'INTEND'
    MARK      'MARKER'                 'INTORG'
    X0000069  C0000000   1.000000000000e+00
    X0000069  C0000001   1.000000000000e+00
    X0000069  OBJ        2.000000000000e+00
    MARK      'MARKER'                 'INTEND'
    MARK      'MARKER'                 'INTORG'
    X0000070  C0000000   1.000000000000e+00
    X0000070  C0000001   1.000000000000e+00
    X0000070  OBJ        2.000000000000e+00
    MARK      'MARKER'                 'INTEND'
    MARK      'MARKER'                 'INTORG'
    X0000071  C0000000   1.000000000000e+00
    X0000071  C0000001   1.000000000000e+00
    X0000071  OBJ        2.000000000000e+00
    MARK      'MARKER'                 'INTEND'
    MARK      'MARKER'                 'INTORG'
    X0000072  C0000000   1.000000000000e+00
    X0000072  C0000001   1.000000000000e+00
    X0000072  OBJ        2.000000000000e+00
    MARK      'MARKER'                 'INTEND'
    MARK      'MARKER'                 'INTORG'
    X0000073  C0000000   1.000000000000e+00
    X0000073  C0000001   1.000000000000e+00
    X0000073  OBJ        2.000000000000e+00
    MARK      'MARKER'                 'INTEND'
    MARK      'MARKER'                 'INTORG'
    X0000074  C0000000   1.000000000000e+00
    X0000074  C0000001   1.000000000000e+00
    X0000074  OBJ        2.000000000000e+00
    MARK      'MARKER'                 'INTEND'
    MARK      'MARKER'                 'INTORG'
    X0000075  C0000000   1.000000000000e+00
    X0000075  C0000001   1.000000000000e+00
    X0000075  OBJ        2.000000000000e+00
    MARK      'MARKER'                 'INTEND'
    MARK      'MARKER'                 'INTORG'
    X0000076  C0000000   1.000000000000e+00
    X0000076  C0000001   1.000000000000e+00
    X0000076  OBJ        2.000000000000e+00
    MARK      'MARKER'                 'INTEND'
    MARK      'MARKER'                 'INTORG'
    X0000077  C0000000   1.000000000000e+00
    X0000077  C0000001   1.000000000000e+00
    X0000077  OBJ        2.000000000000e+00
    MARK      'MARKER'                 'INTEND'
    MARK      'MARKER'                 'INTORG'
    X0000078  C0000000   1.000000000000e+00
    X0000078  C0000001   1.000000000000e+00
    X0000078  OBJ        2.000000000000e+00
    MARK      'MARKER'                 'INTEND'
    MARK      'MARKER'                 'INTORG'
    X0000079  C0000000   1.000000000000e+00
    X0000079  C0000001   1.000000000000e+00
    X0000079  OBJ        2.000000000000e+00
    MARK      'MARKER'                 'INTEND'
    MARK      'MARKER'                 'INTORG'
    X0000080  C0000000   1.000000000000e+00
    X0000080  C0000001   1.000000000000e+00
    X0000080  OBJ        2.000000000000e+00
    MARK      'MARKER'                 'INTEND'
    MARK      'MARKER'                 'INTORG'
    X0000081  C0000000   1.000000000000e+00
    X0000081  C0000001   1.000000000000e+00
    X0000081  OBJ        2.000000000000e+00
    MARK      'MARKER'                 'INTEND'
    MARK      'MARKER'                 'INTORG'
    X0000082  C0000000   1.000000000000e+00
    X0000082  C0000001   1.000000000000e+00
    X0000082  OBJ        2.000000000000e+00
    MARK      'MARKER'                 'INTEND'
    MARK      'MARKER'                 'INTORG'
    X0000083  C0000000   1.000000000000e+00
    X0000083  C0000001   1.000000000000e+00
    X0000083  OBJ        2.000000000000e+00
    MARK      'MARKER'                 'INTEND'
    MARK      'MARKER'                 'INTORG'
    X0000084  C0000000   1.000000000000e+00
    X0000084  C0000001   1.000000000000e+00
    X0000084  OBJ        2.000000000000e+00
    MARK      'MARKER'                 'INTEND'
    MARK      'MARKER'                 'INTORG'
    X0000085  C0000000   1.000000000000e+00
    X0000085  C0000001   1.000000000000e+00
    X0000085  OBJ        2.000000000000e+00
    MARK      'MARKER'                 'INTEND'
    MARK      'MARKER'                 'INTORG'
    X0000086  C0000000   1.000000000000e+00
    X0000086  C0000001   1.000000000000e+00
    X0000086  OBJ        2.000000000000e+00
    MARK      'MARKER'                 'INTEND'
    MARK      'MARKER'                 'INTORG'
    X0000087  C0000000   1.000000000000e+00
    X0000087  C0000001   1.000000000000e+00
    X0000087  OBJ        2.000000000000e+00
    MARK      'MARKER'                 'INTEND'
RHS
    RHS       C0000000   1.000000000000e+00
    RHS       C0000001   9.223372036855e+18
BOUNDS
 BV BND       X0000000
 BV BND       X0000001
 BV BND       X0000002
 BV BND       X0000003
 BV BND       X0000004
 BV BND       X0000005
 BV BND       X0000006
 BV BND       X0000007
 BV BND       X0000008
 BV BND       X0000009
 BV BND       X0000010
 BV BND       X0000011
 BV BND       X0000012
 BV BND       X0000013
 BV BND       X0000014
 BV BND       X0000015
 BV BND       X0000016
 BV BND       X0000017
 BV BND       X0000018
 BV BND       X0000019
 BV BND       X0000020
 BV BND       X0000021
 BV BND       X0000022
 BV BND       X0000023
 BV BND       X0000024
 BV BND       X0000025
 BV BND       X0000026
 BV BND       X0000027
 BV BND       X0000028
 BV BND       X0000029
 BV BND       X0000030
 BV BND       X0000031
 BV BND       X0000032
 BV BND       X0000033
 BV BND       X0000034
 BV BND       X0000035
 BV BND       X0000036
 BV BND       X0000037
 BV BND       X0000038
 BV BND       X0000039
 BV BND       X0000040
 BV BND       X0000041
 BV BND       X0000042
 BV BND       X0000043
 BV BND       X0000044
 BV BND       X0000045
 BV BND       X0000046
 BV BND       X0000047
 BV BND       X0000048
 BV BND       X0000049
 BV BND       X0000050
 BV BND       X0000051
 BV BND       X0000052
 BV BND       X0000053
 BV BND       X0000054
 BV BND       X0000055
 BV BND       X0000056
 BV BND       X0000057
 BV BND       X0000058
 BV BND       X0000059
 BV BND       X0000060
 BV BND       X0000061
 BV BND       X0000062
 BV BND       X0000063
 BV BND       X0000064
 BV BND       X0000065
 BV BND       X0000066
 BV BND       X0000067
 BV BND       X0000068
 BV BND       X0000069
 BV BND       X0000070
 BV BND       X0000071
 BV BND       X0000072
 BV BND       X0000073
 BV BND       X0000074
 BV BND       X0000075
 BV BND       X0000076
 BV BND       X0000077
 BV BND       X0000078
 BV BND       X0000079
 BV BND       X0000080
 BV BND       X0000081
 BV BND       X0000082
 BV BND       X0000083
 BV BND       X0000084
 BV BND       X0000085
 BV BND       X0000086
 BV BND       X0000087
ENDATA
