snakemake/workflow.ATEM/temp/97c4612718cf492c89ca1a4d094b6f5b-pulp.sol
Optimal - objective value 2.00000000
      0 C0000000               1                      -0
      1 C0000001               1                      -0
      0 X0000000               0                       2
      1 X0000001               0                       2
      2 X0000002               0                       2
      3 X0000003               0                       2
      4 X0000004               0                       2
      5 X0000005               0                       2
      6 X0000006               0                       2
      7 X0000007               0                       2
      8 X0000008               0                       2
      9 X0000009               0                       2
     10 X0000010               0                       2
     11 X0000011               0                       2
     12 X0000012               0                       2
     13 X0000013               0                       2
     14 X0000014               0                       2
     15 X0000015               0                       2
     16 X0000016               0                       2
     17 X0000017               0                       2
     18 X0000018               0                       2
     19 X0000019               0                       2
     20 X0000020               0                       2
     21 X0000021               0                       2
     22 X0000022               0                       2
     23 X0000023               1                       2
     24 X0000024               0                       2
     25 X0000025               0                       2
     26 X0000026               0                       2
     27 X0000027               0                       2
     28 X0000028               0                       2
     29 X0000029               0                       2
     30 X0000030               0                       2
     31 X0000031               0                       2
     32 X0000032               0                       2
     33 X0000033               0                       2
     34 X0000034               0                       2
     35 X0000035               0                       2
     36 X0000036               0                       2
     37 X0000037               0                       2
     38 X0000038               0                       2
     39 X0000039               0                       2
     40 X0000040               0                       2
     41 X0000041               0                       2
     42 X0000042               0                       2
     43 X0000043               0                       2
     44 X0000044               0                       2
     45 X0000045               0                       2
     46 X0000046               0                       2
     47 X0000047               0                       2
     48 X0000048               0                       2
     49 X0000049               0                       2
     50 X0000050               0                       2
     51 X0000051               0                       2
     52 X0000052               0                       2
     53 X0000053               0                       2
     54 X0000054               0                       2
     55 X0000055               0                       2
     56 X0000056               0                       2
     57 X0000057               0                       2
     58 X0000058               0                       2
     59 X0000059               0                       2
     60 X0000060               0                       2
     61 X0000061               0                       2
     62 X0000062               0                       2
     63 X0000063               0                       2
     64 X0000064               0                       2
     65 X0000065               0                       2
     66 X0000066               0                       2
     67 X0000067               0                       2
     68 X0000068               0                       2
     69 X0000069               0                       2
     70 X0000070               0                       2
     71 X0000071               0                       2
     72 X0000072               0                       2
     73 X0000073               0                       2
     74 X0000074               0                       2
     75 X0000075               0                       2
     76 X0000076               0                       2
     77 X0000077               0                       2
     78 X0000078               0                       2
     79 X0000079               0                       2
     80 X0000080               0                       2
     81 X0000081               0                       2
     82 X0000082               0                       2
     83 X0000083               0                       2
     84 X0000084               0                       2
     85 X0000085               0                       2
     86 X0000086               0                       2
     87 X0000087               0                       2
